NAME          DCAP_2_4_3_500_SS409
ROWS
 N  OBJ
 L  CON1
 L  CON2
 L  CON3
 L  CON4
 L  CON5
 L  CON6
 L  CON7
 L  CON8
 L  CON9
 L  CON10
 L  CON11
 L  CON12
 E  CON13
 E  CON14
 E  CON15
 E  CON16
 E  CON17
 E  CON18
 E  CON19
 E  CON20
 E  CON21
 E  CON22
 E  CON23
 E  CON24
COLUMNS
    x[1,1]    OBJ       6.180167      CON1      1.000000    
    x[1,1]    CON7      -1.000000     CON8      -1.000000   
    x[1,1]    CON9      -1.000000   
    x[1,2]    OBJ       6.563535      CON2      1.000000    
    x[1,2]    CON8      -1.000000     CON9      -1.000000   
    x[1,3]    OBJ       7.443064      CON3      1.000000    
    x[1,3]    CON9      -1.000000   
    x[2,1]    OBJ       6.732585      CON4      1.000000    
    x[2,1]    CON10     -1.000000     CON11     -1.000000   
    x[2,1]    CON12     -1.000000   
    x[2,2]    OBJ       5.039546      CON5      1.000000    
    x[2,2]    CON11     -1.000000     CON12     -1.000000   
    x[2,3]    OBJ       6.054841      CON6      1.000000    
    x[2,3]    CON12     -1.000000   
    MARKER    'MARKER'                'INTORG'
    u[1,1]    OBJ       48.076654     CON1      -1.000000   
    u[1,2]    OBJ       20.066487     CON2      -1.000000   
    u[1,3]    OBJ       32.230043     CON3      -1.000000   
    u[2,1]    OBJ       49.996186     CON4      -1.000000   
    u[2,2]    OBJ       49.466655     CON5      -1.000000   
    u[2,3]    OBJ       27.484319     CON6      -1.000000   
    y[1,1,1]  OBJ       7.621457      CON7      0.706953    
    y[1,1,1]  CON13     1.000000    
    y[1,1,2]  OBJ       6.962780      CON8      0.762830    
    y[1,1,2]  CON14     1.000000    
    y[1,1,3]  OBJ       5.921206      CON9      1.240506    
    y[1,1,3]  CON15     1.000000    
    y[1,2,1]  OBJ       6.370561      CON7      0.836786    
    y[1,2,1]  CON16     1.000000    
    y[1,2,2]  OBJ       8.443842      CON8      0.951579    
    y[1,2,2]  CON17     1.000000    
    y[1,2,3]  OBJ       5.530550      CON9      1.254653    
    y[1,2,3]  CON18     1.000000    
    y[1,3,1]  OBJ       9.893439      CON7      0.918630    
    y[1,3,1]  CON19     1.000000    
    y[1,3,2]  OBJ       9.958961      CON8      0.919536    
    y[1,3,2]  CON20     1.000000    
    y[1,3,3]  OBJ       6.986501      CON9      0.508715    
    y[1,3,3]  CON21     1.000000    
    y[1,4,1]  OBJ       7.401371      CON7      0.899367    
    y[1,4,1]  CON22     1.000000    
    y[1,4,2]  OBJ       9.779761      CON8      1.485618    
    y[1,4,2]  CON23     1.000000    
    y[1,4,3]  OBJ       9.298193      CON9      0.843310    
    y[1,4,3]  CON24     1.000000    
    y[2,1,1]  OBJ       7.873364      CON10     0.706953    
    y[2,1,1]  CON13     1.000000    
    y[2,1,2]  OBJ       6.810890      CON11     0.762830    
    y[2,1,2]  CON14     1.000000    
    y[2,1,3]  OBJ       5.784657      CON12     1.240506    
    y[2,1,3]  CON15     1.000000    
    y[2,2,1]  OBJ       9.632256      CON10     0.836786    
    y[2,2,1]  CON16     1.000000    
    y[2,2,2]  OBJ       7.057891      CON11     0.951579    
    y[2,2,2]  CON17     1.000000    
    y[2,2,3]  OBJ       7.077730      CON12     1.254653    
    y[2,2,3]  CON18     1.000000    
    y[2,3,1]  OBJ       8.903097      CON10     0.918630    
    y[2,3,1]  CON19     1.000000    
    y[2,3,2]  OBJ       7.253873      CON11     0.919536    
    y[2,3,2]  CON20     1.000000    
    y[2,3,3]  OBJ       8.471159      CON12     0.508715    
    y[2,3,3]  CON21     1.000000    
    y[2,4,1]  OBJ       9.098252      CON10     0.899367    
    y[2,4,1]  CON22     1.000000    
    y[2,4,2]  OBJ       6.213029      CON11     1.485618    
    y[2,4,2]  CON23     1.000000    
    y[2,4,3]  OBJ       9.441318      CON12     0.843310    
    y[2,4,3]  CON24     1.000000    
    z[1,1]    OBJ       652.684476    CON13     1.000000    
    z[1,2]    OBJ       853.585325    CON14     1.000000    
    z[1,3]    OBJ       911.068549    CON15     1.000000    
    z[2,1]    OBJ       729.981307    CON16     1.000000    
    z[2,2]    OBJ       752.226602    CON17     1.000000    
    z[2,3]    OBJ       709.254039    CON18     1.000000    
    z[3,1]    OBJ       861.905639    CON19     1.000000    
    z[3,2]    OBJ       842.337545    CON20     1.000000    
    z[3,3]    OBJ       960.249243    CON21     1.000000    
    z[4,1]    OBJ       637.818670    CON22     1.000000    
    z[4,2]    OBJ       727.778423    CON23     1.000000    
    z[4,3]    OBJ       909.277422    CON24     1.000000    
    MARKER    'MARKER'                 'INTEND'
RHS
    RHS       CON1      -0.000000     CON2      -0.000000   
    RHS       CON3      -0.000000     CON4      -0.000000   
    RHS       CON5      -0.000000     CON6      -0.000000   
    RHS       CON7      -0.000000     CON8      -0.000000   
    RHS       CON9      -0.000000     CON10     -0.000000   
    RHS       CON11     -0.000000     CON12     -0.000000   
    RHS       CON13     1.000000      CON14     1.000000    
    RHS       CON15     1.000000      CON16     1.000000    
    RHS       CON17     1.000000      CON18     1.000000    
    RHS       CON19     1.000000      CON20     1.000000    
    RHS       CON21     1.000000      CON22     1.000000    
    RHS       CON23     1.000000      CON24     1.000000    
BOUNDS
 BV BOUND     u[1,1]  
 BV BOUND     u[1,2]  
 BV BOUND     u[1,3]  
 BV BOUND     u[2,1]  
 BV BOUND     u[2,2]  
 BV BOUND     u[2,3]  
 BV BOUND     y[1,1,1]
 BV BOUND     y[1,1,2]
 BV BOUND     y[1,1,3]
 BV BOUND     y[1,2,1]
 BV BOUND     y[1,2,2]
 BV BOUND     y[1,2,3]
 BV BOUND     y[1,3,1]
 BV BOUND     y[1,3,2]
 BV BOUND     y[1,3,3]
 BV BOUND     y[1,4,1]
 BV BOUND     y[1,4,2]
 BV BOUND     y[1,4,3]
 BV BOUND     y[2,1,1]
 BV BOUND     y[2,1,2]
 BV BOUND     y[2,1,3]
 BV BOUND     y[2,2,1]
 BV BOUND     y[2,2,2]
 BV BOUND     y[2,2,3]
 BV BOUND     y[2,3,1]
 BV BOUND     y[2,3,2]
 BV BOUND     y[2,3,3]
 BV BOUND     y[2,4,1]
 BV BOUND     y[2,4,2]
 BV BOUND     y[2,4,3]
 BV BOUND     z[1,1]  
 BV BOUND     z[1,2]  
 BV BOUND     z[1,3]  
 BV BOUND     z[2,1]  
 BV BOUND     z[2,2]  
 BV BOUND     z[2,3]  
 BV BOUND     z[3,1]  
 BV BOUND     z[3,2]  
 BV BOUND     z[3,3]  
 BV BOUND     z[4,1]  
 BV BOUND     z[4,2]  
 BV BOUND     z[4,3]  
ENDATA
